50
50
1 17
2 18
3 20
4 17
5 19
6 19
7 13
8 19
9 15
10 17
11 14
12 10
13 19
14 14
15 15
16 13
17 18
18 14
19 16
20 16
21 10
22 10
23 19
24 16
25 18
26 18
27 12
28 18
29 15
30 10
31 13
32 10
33 16
34 10
35 15
36 12
37 20
38 18
39 10
40 12
41 12
42 15
43 11
44 19
45 17
46 14
47 11
48 12
49 18
50 16
